c LRAT-TRIM Version 0.2.1-dev trims LRAT proofs
c Copyright (c) 2023-2025 A. Biere, F. Pollitt, Univ. Freiburg
c reading CNF and LRAT files
c backward checking trimmed clauses after trimming proof
c reading CNF from 'D:\Projects\carrollian\data\evidence\ss_sat\benchmarks\scaled\horn_chain_64.cnf'
c found 'p cnf 64 65' header
c parsed CNF with 65 added clauses
c parsing original CNF took 0.00 seconds and needed 0 MB memory
c reading proof from 'D:\Projects\carrollian\data\evidence\ss_sat\proofs\scaled_cadical_lrat\horn_chain_64.cadical.lrat'
c parsed original proof with 64 added and 0 deleted clauses
c parsing original proof took 0.00 seconds and needed 0 MB memory
c trimmed 65 original clauses in CNF to 65 clauses 100%
c trimmed 64 added clauses in original proof to 64 clauses 100%
c trimming proof took 0.00 seconds
c backward checking proof took 0.00 seconds
s VERIFIED
c checked 64 clauses 0 per second
c resolved 192 clauses 3.00 per checked clause
c assigned 127 literals 1.98 per checked clause
c maximum memory usage of 0 MB
c total time of 0.00 seconds
